generated by gro2pos                    
   1.00000000000000     
    17.9600000000000009    0.0000000000000000    0.0000000000000000
     0.0000000000000000   17.9600000000000009    0.0000000000000000
     0.0000000000000000    0.0000000000000000   17.9600000000000009
   Si   O 
   150   300
Direct
  0.5634170862710219  0.4113731566502343  0.8744184627453474
  0.2507638909178030  0.2796161000808289  0.7109382699725155
  0.5629819580099779  0.4811214311129005  0.1934339236201244
  0.3652988192304168  0.4407681472155671  0.8436596371714187
  0.5901717922947517  0.0635575309853455  0.3043527187704902
  0.7283989738432722  0.4976506909288230  0.8424637687661979
  0.0293534781413921  0.8203294805920364  0.9661793152257951
  0.5279879685520017  0.5725853909957117  0.8539596180000765
  0.4993585753466144  0.8734976840107722  0.9227327065876635
  0.0472190712536863  0.5337786149785207  0.4240660825947983
  0.1686545095220723  0.7766927978690403  0.7103665684746280
  0.8426956016786623  0.1305686558684747  0.6887839223392643
  0.9786955309760693  0.7536689110874807  0.1270762113068112
  0.1739275144909884  0.5308854258215803  0.7423980859206899
  0.7340981295852599  0.7805396766148860  0.0611006208544995
  0.0642416776807904  0.7037005339197970  0.6003399646078167
  0.8014383297463197  0.5076107922767855  0.7050066956146033
  0.2936380543355133  0.7407227196589828  0.0849328113717918
  0.0263204864442172  0.2890132929060866  0.6576647488597858
  0.4471947372126833  0.8199951070528101  0.4806395850274999
  0.2155308307966494  0.5982038421205010  0.9044444803873614
  0.4055937688352551  0.1725518051775961  0.4542995230293344
  0.2794455014132380  0.2665639207555650  0.0120583863728441
  0.1676636495401908  0.7351475667831765  0.3482438938546405
  0.4029664461144430  0.6621241952922386  0.3040475738325161
  0.4710073727794970  0.9647607048623716  0.3764384751771449
  0.9976972109947871  0.3938715085991654  0.5312621213005263
  0.4168660178295204  0.9695382767070448  0.1445548309580626
  0.0266023446082221  0.7746641844086173  0.2740172365711891
  0.9432585399434208  0.3298581864479289  0.2379638221458210
  0.9262791015244777  0.9760098614127514  0.6373465293695055
  0.1753225836790100  0.9860656145090489  0.6492452167074181
  0.0336473167955738  0.2427374594258488  0.0223392414116086
  0.1656052483712849  0.9817957623315205  0.3463579292796586
  0.5810642642933875  0.3328012281508897  0.4897369772383353
  0.9885027773623718  0.1068019318372257  0.7430884445516694
  0.9939653043185441  0.6625631032119961  0.8825368073613125
  0.7911716205330509  0.8845643881750882  0.8529846291417019
  0.7132490357068331  0.1278146872357969  0.8802193008802051
  0.4780467580654767  0.3366036538122395  0.6328846318735987
  0.3215901328191463  0.8245590455899632  0.6705020098001424
  0.1783997193447207  0.9446051683646843  0.4760790582508333
  0.9205846914712006  0.4793341037266818  0.3273275784709792
  0.3848853644097412  0.5686108914459715  0.9553666624879388
  0.1505722184706405  0.3807818747432294  0.6639579776609682
  0.4213783250761750  0.0782796141967513  0.8287902691983636
  0.5462307566798889  0.6858447909058903  0.2064012032885374
  0.1847792119652051  0.3257293095151220  0.3658807504044873
  0.7335228181335991  0.3145380389798988  0.5425931566919764
  0.2065492702016261  0.7483322842317233  0.9449295610631870
  0.8485754741562295  0.6034430796487890  0.4913836956788077
  0.5634520412524041  0.1845926377768998  0.4240116908165651
  0.0782580280364434  0.5379116926620140  0.9768781809864646
  0.9700802613393898  0.3586293459430493  0.0680201496791065
  0.5460394170933069  0.0378754891589941  0.1340552348118912
  0.4254509715736549  0.6796068499662224  0.5810588998767210
  0.7647107680937822  0.2521237846864988  0.0708688192688234
  0.7208263829179868  0.6665051595232080  0.7641884764026369
  0.1265593402246344  0.3900899314659224  0.9534172738864705
  0.5301136781869191  0.8765680121108188  0.6716737668533946
  0.8917495036037867  0.3476399606931973  0.7387795469456301
  0.2052542614561482  0.3250605929640306  0.5157913023025155
  0.5819838838730153  0.2940304405882368  0.7323267935774987
  0.3032830009440436  0.2267929148446356  0.1677001766537990
  0.3491635209399178  0.9477676520936891  0.5278450408865069
  0.5428026707939579  0.4284302633394270  0.0383147620064278
  0.6829761644546332  0.2881335938502970  0.2046277918468618
  0.6317408356749104  0.5025206891020533  0.4229536705958750
  0.3319141726976497  0.5504430135881775  0.4845081714956546
  0.5300481302476778  0.5617498890764874  0.6761383453144358
  0.9714487559550459  0.6774803104795241  0.3886055586262675
  0.6331946865288175  0.0130612985140362  0.6541065093507371
  0.5792937606604742  0.5936521134206181  0.0697946168434823
  0.1029923991485478  0.0967637497189668  0.9768260156938601
  0.8160841980953736  0.2138895936742970  0.2666221556777401
  0.4002339114665683  0.2071626627499727  0.7053656088777872
  0.2582847172239399  0.3897334652790128  0.2360719189138858
  0.8385652502021250  0.0879502367890329  0.0750210277561799
  0.4034674205166066  0.1002449695287043  0.5598661747938634
  0.0136978450548005  0.5738631613573628  0.7499052396559217
  0.1434563199879561  0.5695546622934767  0.1297148743985776
  0.0924370763457012  0.9217044060063923  0.7730399795884642
  0.1057349838582493  0.1649098748789881  0.8128503795695547
  0.1722272406104505  0.5745830645094140  0.6123148218600813
  0.3104568553775202  0.1915851419463312  0.3254352100365651
  0.9668935229460975  0.2567539350183146  0.8705424408971500
  0.9350283510286652  0.0100371894323100  0.9733600848045826
  0.1583697732993118  0.1652805496217030  0.6130707737176356
  0.7132461743316513  0.9760298831660205  0.7661761508858479
  0.6691238622814738  0.0992067196710881  0.4961929327060779
  0.1294955673285170  0.1854018688345181  0.3310875364317908
  0.9138257250407857  0.8663044174095413  0.7684735403012126
  0.5982940246238155  0.8807565213226135  0.0480501917221280
  0.4038392389930870  0.5099060331643708  0.2514108379995380
  0.5095022761238573  0.7079730737941322  0.9272987073723586
  0.2262824266836968  0.3444061922420524  0.8628499228724142
  0.1960474674242028  0.5962218680248794  0.4301325244134881
  0.0927276584622814  0.0832166564651579  0.4880597342167260
  0.3906336142870428  0.3990298193998123  0.0109739896665943
  0.9125777989158439  0.6558566866410860  0.9986629508528128
  0.8279817932049847  0.7397971014916923  0.1919582003613449
  0.8699257035765703  0.8771408282146212  0.0077904048235139
  0.5566655960294200  0.2454546509094110  0.1821174200157192
  0.6463431800040524  0.9128360905856782  0.3133433844963099
  0.7964503087562574  0.9646723629843981  0.5315316005229018
  0.0523548549148112  0.9862176842448507  0.8940678653173969
  0.6099959684565132  0.9477836522076853  0.9057475676175487
  0.9158254549273662  0.1055724197205196  0.2121255965675519
  0.3706044476561030  0.1291830193648463  0.9887562932232871
  0.3024721623526579  0.6746296930176660  0.7201256396685555
  0.9405066385902288  0.8539345976592040  0.3822435219556393
  0.3391852407658496  0.9574063205087436  0.7391120755336648
  0.3460154212240190  0.8372334019284238  0.9645140593235948
  0.6611481264478587  0.1153997850009955  0.0320884950274611
  0.7322001402499124  0.6265764673250799  0.9713679950029499
  0.2570824756500675  0.0234279841427389  0.0167491455425581
  0.5690587765959605  0.1221309833208219  0.7817101749092716
  0.8300379723246900  0.4452584980398108  0.4723616565559488
  0.9455392920224086  0.9355189115893452  0.2159139460750107
  0.8650902250268463  0.5272569414003694  0.0547309407847093
  0.2478472252611850  0.8904224600409325  0.0905039045923954
  0.6499912091596696  0.8141244592481290  0.8051935087293751
  0.7568511615779093  0.2890646411762876  0.7032391466439796
  0.6703582785127586  0.5503522194420858  0.6016955261976333
  0.3132872619964164  0.7958138288160129  0.3549810333010646
  0.0390896153714246  0.8657209312947705  0.5467289623097343
  0.8030281356301552  0.1738019235730808  0.4375265481968592
  0.5560522446392520  0.6362951267666226  0.3426651031463081
  0.7314637679528674  0.7075769907191741  0.5497282387297069
  0.3247785408271471  0.9691559153432733  0.2952347566380392
  0.2148641759041398  0.0629503138224626  0.8532033937370944
  0.8461674975491184  0.7396295298397098  0.6639505457301393
  0.3782845700535354  0.5307265402992274  0.6858430747681840
  0.9417132472545845  0.5721899763452554  0.6395725573592227
  0.1115504492787311  0.6569112997567829  0.2098949957802716
  0.3294037432593845  0.4282271400301669  0.5659057427953810
  0.4399814977306432  0.2474345893949224  0.0718308895311690
  0.0291504362070379  0.2423312184035185  0.4905792526491040
  0.5083222213618963  0.8637749522226970  0.2466437488146410
  0.6094004554323438  0.7775643978654448  0.4261419262605122
  0.0823215738882758  0.8575057450238964  0.1495159341649908
  0.3948823976284531  0.6299988829313234  0.1334301825256462
  0.2323155138789400  0.4590433219714796  0.0742064116279212
  0.9369574575665305  0.4636548059213595  0.9056088032720554
  0.0350146780715844  0.2112318642373425  0.1927317613667010
  0.8438889462787453  0.5717381950688079  0.2140215496508318
  0.7084603026895174  0.4763317897720156  0.2795549718804378
  0.9290800506130044  0.1147146710253989  0.5320822254093273
  0.8096068216453761  0.8702228877069693  0.2679355514144569
  0.8115078929106302  0.3951420405437381  0.9741470024668887
  0.4729836987674529  0.6862176880264435  0.3524632573406067
  0.2533102673650939  0.0127139117802111  0.7738124507649413
  0.7922565102139525  0.9563762714051322  0.8051506234364699
  0.4689049339163789  0.3802650071698949  0.0758457927962430
  0.6132427419863135  0.4651467246310992  0.2638064250860261
  0.9035378364121837  0.1311365856573986  0.6124265414646554
  0.2835962152006549  0.4065688113062253  0.8442514804070350
  0.3392233534702772  0.6593415889026099  0.8023287929706835
  0.1489353242412409  0.6720169809755632  0.1300351837617997
  0.3220917935067775  0.6729593054712653  0.1305929154476673
  0.7128558181158250  0.6332971494467620  0.6047074092650269
  0.1539413715156902  0.4811996052962405  0.6189138718178132
  0.3143013396586082  0.2289312884527994  0.6814235973624531
  0.1516962541745539  0.8982598185104136  0.1127178475428336
  0.4051530615794881  0.3911625734344700  0.9128163806781591
  0.0161186388510389  0.5260379154520729  0.6607074409145707
  0.7492026994032579  0.0770252254697722  0.0321959586282432
  0.5955154202083296  0.1358367686735364  0.3583238574504051
  0.4350182013156955  0.1888806543590155  0.0055579669472953
  0.5690700850287640  0.6807488044612459  0.1131262456191320
  0.1897173830403926  0.4358779451638625  0.7312710328083867
  0.4716174798302579  0.8945378272006664  0.3229967837622565
  0.2974654505657318  0.6107071952703392  0.9686756617622508
  0.0757643026643778  0.5656194568968351  0.1988690411376835
  0.0455918770376638  0.9030869487402786  0.9468163609849535
  0.4288673807227827  0.6519148424748586  0.0544144435761566
  0.0015310510989196  0.8620184696309322  0.3081213853473476
  0.5266845207181601  0.7813187928592458  0.4449329534187596
  0.0532395228147841  0.0901989082836928  0.8138311333543943
  0.7501854216357646  0.7519594952730454  0.1449428881365525
  0.2592392284330635  0.9783802101882606  0.1171767943830249
  0.2529486433876131  0.3611979023377484  0.6535457188217608
  0.8899330595070836  0.5595653861565706  0.1305659922129514
  0.2258318938245981  0.1423211736766797  0.3289514865262839
  0.8459346821018506  0.4779822198926409  0.3764407225016792
  0.6477308280692162  0.9336296719511402  0.8149955553369364
  0.1794760788771719  0.0801809468256566  0.6564205411011711
  0.5467171136644486  0.5299444579079398  0.0258967990822238
  0.8872574932493071  0.7956940447730017  0.7156238138798129
  0.4815959839697161  0.4649663480858379  0.2438006757724656
  0.3103488165699770  0.8807926622003622  0.2979504867938486
  0.8070588510070640  0.8335931753146150  0.0492879461895417
  0.8185462250724429  0.2138083158072825  0.3624412625558937
  0.2336368115630750  0.3335627466577098  0.9482899540715187
  0.3832187564393348  0.0854530625925069  0.9051755754038150
  0.5780015181448038  0.6419851724425705  0.8649999159895293
  0.5344870314697527  0.9260407378277843  0.4387375182536787
  0.9382934696101314  0.2622659387985751  0.6755412635018814
  0.5778425173816588  0.0927854285305236  0.0726146877286063
  0.0254541483788298  0.2922242400370174  0.2337184205220607
  0.9437176646605825  0.2821366708857552  0.0258447338904761
  0.5637085174291100  0.6130692904812773  0.2606667664855285
  0.7560022361740312  0.3798203665616707  0.4720915120097361
  0.7806626704656193  0.5199795831406760  0.2562258524650823
  0.9623944074036246  0.1863410044663340  0.5047927442078741
  0.8719596642145570  0.0482756305672716  0.1517097653945400
  0.4762946422500960  0.1969146724444862  0.3958022180924548
  0.1073658188007360  0.7980060674726648  0.2125333741028258
  0.3844887017583687  0.0253259767328151  0.7603620651448342
  0.7593105337966652  0.3506295483740137  0.6350672027025439
  0.1417818877934791  0.1440904304532052  0.9068417456576564
  0.0920971696162348  0.5422110760915099  0.7692246035602484
  0.7198273406910948  0.3895352816156175  0.2499498837761069
  0.4957164827205748  0.5871106725510276  0.7604700980661613
  0.5683895888228101  0.2077651820579306  0.7252508572999290
  0.6535580026650836  0.3120632500893963  0.5401557661311268
  0.2690868944168633  0.2848804456105263  0.7978561253625800
  0.6979527709929676  0.9594695509071562  0.6815161350179405
  0.8913862120063677  0.4218062033737923  0.6936219192815848
  0.1589691348008916  0.5581923609651703  0.9545099689542985
  0.5374365248065367  0.9477462224001966  0.6204718217466961
  0.8738851349585207  0.8362196578327423  0.8468827321979846
  0.3906998574218468  0.4574026090868988  0.7529742408087376
  0.9180156233461491  0.1658262768670192  0.7512331562676816
  0.5946080250762059  0.3276172022414548  0.2240667271476869
  0.2202960227752503  0.5340839562028949  0.1110926752989043
  0.5948235297199563  0.8086941701790310  0.8956374899118490
  0.6792266421495169  0.2029911011829396  0.0594670312582153
  0.7918189680128112  0.2173142111502120  0.6703471627226030
  0.5108297709742432  0.0716522317727552  0.8301390568062350
  0.6531036396962856  0.7505123923294560  0.5092472140697600
  0.8776577882151052  0.9005302011558647  0.3394024192526287
  0.2469405404191880  0.0173387366350353  0.3201787612511071
  0.5981277901507194  0.1464322536964483  0.5049561868991519
  0.0851794706956067  0.3387495136928300  0.7120872391882286
  0.1863400022932226  0.1309907051758512  0.7824774276876165
  0.7366157645301507  0.9004616341286752  0.2986714631863924
  0.3483695499544505  0.7480438651839212  0.6475212614491710
  0.9081201181184000  0.5615643479418471  0.2844522183882033
  0.3639596388730156  0.7899405103304739  0.0444136584351143
  0.1333542870609238  0.3701962742136178  0.8588335763265665
  0.9088546267591526  0.6463819848331471  0.8925160204341813
  0.0451315180228317  0.4808662281144911  0.5116824608425713
  0.8887509993212975  0.9423485862938693  0.7229909914099787
  0.9743599416978265  0.7153238694790236  0.3102689946233324
  0.6550846883306221  0.8145665590270962  0.0747216043758998
  0.3573365477414791  0.1977034021643240  0.5187610316587603
  0.5637390089963821  0.5576321165875936  0.3817253388093781
  0.4434480656696027  0.7635171658815176  0.5567944019957520
  0.3832534360845723  0.0011935162438537  0.3552072748600193
  0.4585606940664397  0.2909303304778293  0.7111147546217641
  0.9803807429259843  0.0544481789955507  0.5085705141207224
  0.3816009529895689  0.9624947503506478  0.0706467741069498
  0.2557392739725137  0.0245427522456218  0.9231211726422804
  0.9726259755819926  0.6852765903088756  0.0579298960020406
  0.7863063206772591  0.8837847983406931  0.5377378580514214
  0.9626833365867355  0.3215230284275514  0.8220011899895230
  0.8886059696972195  0.7541406183446080  0.1235883178169620
  0.0781244863679044  0.2283086283246585  0.1039186897042169
  0.9614089443767637  0.0201397263725615  0.8899331245678382
  0.8245775753723942  0.6401803476263440  0.0259012145180351
  0.0223573469976575  0.9467451998370058  0.1584183903221911
  0.9960444341356053  0.4791885830711274  0.3684752057491613
  0.2230208648676431  0.7068006015637832  0.0250753506657553
  0.9251764958314956  0.5193553615496380  0.9848069982080969
  0.9902882729738637  0.6455958557465942  0.8016537785823132
  0.4820661569759594  0.1979641446863984  0.2032469688685818
  0.8567577929914493  0.9257655766777549  0.2001355819994136
  0.3067764953277646  0.9087525794611951  0.0063099542719803
  0.9694564319281612  0.8123741259629600  0.2024420426286429
  0.0652712172140131  0.2329873336442717  0.8561305503359066
  0.8646491499850508  0.5744913266028415  0.6827969877838348
  0.0770546745038664  0.1564340979537016  0.2598676625492658
  0.5474186873056024  0.7694204604448377  0.2550126925267805
  0.8844833743233224  0.0797430905416765  0.9951559615321570
  0.1961022713435472  0.3928773560428963  0.3005669289254879
  0.9791481184925203  0.8999883953698420  0.4663871939310777
  0.0256567260822595  0.6866970733365866  0.1877012371990680
  0.3383588985583654  0.0258536977847494  0.5743802856098823
  0.6731023879519588  0.5640993751046181  0.0206359006049524
  0.6305818495133577  0.7033271272282564  0.3770022067717269
  0.9350708396491080  0.4153609295162816  0.2652578918459290
  0.5380608357283442  0.2545947414517650  0.0950314027145466
  0.8177410063121852  0.6485061779987188  0.2094735474999849
  0.4336512166972196  0.1495596859463517  0.6261198476512289
  0.4628477418715623  0.5163799057665355  0.6433956511441226
  0.7403437382519151  0.0172290224721564  0.4772834304397164
  0.7464268581432084  0.2536011332303866  0.2553566420201813
  0.9315483013628088  0.9478755065576333  0.0448606147115021
  0.1047306743739336  0.9996433865044682  0.2774190687271448
  0.2305633576003376  0.7910716122640785  0.3444488749024311
  0.7869060833505096  0.7071487378028856  0.7341947504039237
  0.8071921328985110  0.2335502795235468  0.5158401196685967
  0.0765594915014491  0.5582040966000437  0.0613683754023777
  0.0539770942098826  0.2394807832924093  0.5783910990678880
  0.8919648501565679  0.6336568685502818  0.4017803289388249
  0.0645110484044055  0.0233180243884052  0.9739990610911773
  0.7530343385033588  0.5182417077359925  0.6366598990402152
  0.1111922455126213  0.8832212547376487  0.5000498009674479
  0.8844045370676987  0.3855362618347036  0.9239405246939656
  0.6334826631437982  0.4727243920773626  0.8410389811749867
  0.0460766968369837  0.6030524573418119  0.9262143644329285
  0.7650463724564109  0.7548247361153526  0.6123524829740157
  0.9298724760855900  0.8098764243328976  0.9842340077438868
  0.6522608950700239  0.0047658542427975  0.3316259256841128
  0.4124719902749678  0.9037109370761293  0.4764333872683625
  0.8346196269240655  0.1904219178038059  0.0939445838518156
  0.8173964909960871  0.7795073720806646  0.2721371088372555
  0.4088800594494701  0.8839093628395275  0.9192120889625615
  0.1321863873575090  0.2749441363328931  0.3223019724957262
  0.6713263435631567  0.0703905418259406  0.5855103118281018
  0.9221348771316629  0.3708630769805663  0.1487132610892996
  0.3563426375905637  0.8697878782643769  0.5971331589812391
  0.2696606441354694  0.8033262353961363  0.1474818143476221
  0.3130173219380891  0.4970578790925082  0.6227460110098995
  0.9527235555671588  0.4929857730236004  0.8202767072744660
  0.7285608951902182  0.7165316521929017  0.9669338632853013
  0.4909173032406397  0.6448872508731338  0.6294514763557058
  0.3248911760892479  0.0875451927021599  0.0567409867554662
  0.6951218525543328  0.5822701969868957  0.7800524050522003
  0.4559479111690462  0.8919237358131016  0.1729804483538137
  0.7514673957855208  0.4394580999573605  0.9191006198069391
  0.0391647618977704  0.4161744015497609  0.0585799314618297
  0.5876697849961401  0.6708897939470380  0.9774781133476155
  0.5100591402546194  0.0341275895941243  0.3211022906633929
  0.3918129835789987  0.7884214341708440  0.4069252687841345
  0.0054017921778566  0.7577828725865352  0.8959100332217163
  0.4676698983115044  0.6142139473124375  0.9226393466812662
  0.7956307450652633  0.1726342423362663  0.8843306514560751
  0.5574149920473899  0.3724074789864674  0.6589577407502765
  0.0441565563453664  0.4511852344697535  0.9383891417224030
  0.7484632091843251  0.5915489421222893  0.8823732404422482
  0.2803822445246755  0.8038489426201911  0.9057598245228040
  0.9357402394788035  0.0172312141041547  0.2570751569153318
  0.0021306416195518  0.8906636355383691  0.7983058445190050
  0.8238611637540710  0.4538331410926268  0.0497458718505629
  0.5128332633889708  0.4868646768178550  0.8749459887498146
  0.2814128095478334  0.5753692546245054  0.4088674535135937
  0.4476665262054207  0.6730465204686267  0.2176225153970694
  0.5829970378549104  0.0683211171839894  0.2057229936352901
  0.8561169974189052  0.1065829065753868  0.4754457048697245
  0.8438600679971957  0.1346242603027944  0.2510328745031390
  0.6100350273845579  0.8577827347807145  0.7255723047885676
  0.8053230921293969  0.3222141106173457  0.0101214201988935
  0.3699867083713864  0.4684244847981228  0.4914075166284044
  0.4572737620412353  0.0504353914848751  0.1296428959318275
  0.1035286914576385  0.2944046900391594  0.9832062524823934
  0.0317330444878513  0.1507116793053501  0.9910888473102618
  0.7970477867943571  0.5242616873747343  0.4878747140086797
  0.4015221141371321  0.3922358665881043  0.6151510884362373
  0.2875065297941761  0.3589949458538466  0.5126909234853897
  0.1742600710937240  0.0492113131029020  0.0155300319862291
  0.2446386328231633  0.4059640083746948  0.1486800847678397
  0.0811804194501761  0.7429820159582805  0.6879398311022866
  0.3032464667942540  0.4230665414865597  0.0283599613464924
  0.9721325506225826  0.1548495061607821  0.1676961915415940
  0.2158243573101869  0.5374922991774590  0.8178918713116113
  0.0390063659518176  0.1812946501768837  0.6950709265533614
  0.3614197585397343  0.5308734785620810  0.8655565039302275
  0.2406865955231736  0.5407641303856922  0.5326605322464198
  0.2668039705977368  0.9364596428635988  0.5001748974975408
  0.7366067952088151  0.8170739534634220  0.8400523818352995
  0.8053442424695252  0.9149219157142553  0.9313570276010664
  0.2123742028091920  0.7125588113985020  0.7672774479796716
  0.3405540550164950  0.1497287408038133  0.3962914183044631
  0.5817797905939915  0.2662885159081330  0.4195977355552272
  0.2193865446890624  0.8209640214879159  0.6413780592074517
  0.3706563031515231  0.6208061745834926  0.5130113567620141
  0.3074108800794396  0.1963581177263968  0.9641327290221799
  0.0919513367056784  0.7757370940442300  0.3390249432611210
  0.1011250790174148  0.9725009294984632  0.6975530571275783
  0.3540807052432844  0.9738292783638084  0.2138463219368953
  0.8673513268398610  0.0028097409093761  0.5798320963197706
  0.1450853463840866  0.7972048736120653  0.9713726809785790
  0.4536409690878356  0.7573567616986762  0.8908082671917532
  0.1179333855240842  0.6491298316575347  0.5502180906963335
  0.6684317963681643  0.2758452522017586  0.7063102732959250
  0.9042806098867944  0.2616974917165096  0.2712755144744606
  0.0043169008427500  0.3933586467565066  0.6191136936867880
  0.5722471261706721  0.3726680187418772  0.9600644489089993
  0.6339600826860374  0.2082850206477972  0.1891695509520825
  0.3144591534489417  0.1576319557371778  0.2357210627839387
  0.1779713767925749  0.6764596711992469  0.4122153455964733
  0.0272696768225011  0.8018266239780278  0.0718362755460487
  0.5927026970781519  0.9082560603314338  0.2348014631442137
  0.1669379629683444  0.6812225141539484  0.2715546982395363
  0.7359808579615567  0.3157051334568562  0.1300475991278957
  0.3837560727479216  0.2542032047739691  0.1402067654035124
  0.4623119522415672  0.8502676561437896  0.7102556124825272
  0.6408102070773836  0.0898201812214812  0.9367996437293985
  0.5819295595724799  0.0708565538053959  0.6954087066243019
  0.1365890375118894  0.8404807525274636  0.7730002486880833
  0.2640543753699117  0.2916278516570502  0.3845739245467482
  0.0271181250744948  0.3330806054289003  0.4611064333744657
  0.1001881551371138  0.1309190788997451  0.5676010235781084
  0.4093957091174607  0.5014650893432457  0.0121620152689771
  0.5837871032487161  0.4209517882319115  0.1224664347071939
  0.6387246226992147  0.8416020441477231  0.3742680061994566
  0.9874904414436895  0.9082730306916521  0.6051117561444707
  0.8161140981249894  0.3224778536873860  0.7728854308389110
  0.6529708194879559  0.9338270436244065  0.9771321247366970
  0.6423933018454402  0.1652542461550896  0.8287001529776516
  0.3167596235410872  0.8687217072533531  0.7641004732735732
  0.9956013229154758  0.6547797481915026  0.6415254058772053
  0.2016091989465198  0.9006806300500806  0.3888044951225151
  0.3720536588622252  0.3113223961772087  0.9987393233429113
  0.0523875468326156  0.7746686938339693  0.5563370902274192
  0.5783999957686606  0.4269890213118836  0.4429339180825210
  0.1633522692393565  0.0064155213688993  0.5549903012784592
  0.9107397959959971  0.5799391303359019  0.5565841575079506
  0.3985855355753646  0.5729534487240516  0.3120634278311499
  0.6233248093735380  0.5375941579018433  0.5125618946968382
  0.0819989063353979  0.1547865197163180  0.4381976959977847
  0.7117616896494012  0.1573325700416522  0.4392888426084247
  0.6127730608873790  0.5348906101074790  0.6717347461244736
  0.1639938651489169  0.3520679223401175  0.4420166504581075
  0.5347905621960929  0.5552457411399412  0.1408992960436272
  0.9703811608752326  0.0307834433168316  0.6962096735343306
  0.5586194806246473  0.3561422881655822  0.8067180123786934
  0.4983149959714580  0.3150347271289579  0.5495531307421754
  0.1343448282424237  0.9768237741474174  0.8503413962935107
  0.2038300860302281  0.2281217370210513  0.5546387357043600
  0.1948406201681967  0.6890183586811958  0.8868129074553341
  0.8092786033584365  0.0506556775029925  0.7124447336527009
  0.4506965600598822  0.0927050141636730  0.4893342448345273
  0.8030964954250315  0.4730335920138253  0.7914478071537775
  0.5213874725415915  0.9567746329633843  0.8970987900141187
  0.1439756664504013  0.3609407894637263  0.5784376326039071
  0.5202089617909105  0.8417556407937313  0.0106065526834174
  0.7020454476786502  0.0495935949818748  0.8290555052462006
  0.2491934097978243  0.2167992988152494  0.0911747344452381
  0.3665427593330616  0.5522749611964866  0.1783882200939270
  0.6970378672985025  0.5123349305263287  0.3649395449082979
  0.1358414685297887  0.5418581158624787  0.4011667871466814
  0.9445855126742351  0.7678261755460898  0.4190972958684392
  0.1866976007225141  0.2263481627235059  0.6835682598401353
  0.2566101744921157  0.2981500598098761  0.2186713614158612
  0.2035630513323131  0.6267084084070255  0.6823542620790275
  0.4216440159252818  0.1685542113904180  0.7834415932935986
  0.9004549118805778  0.4113970923648531  0.5028513871498811
  0.1641456491050798  0.4297610587840547  0.0151189963762242
  0.3278150596612242  0.7186774985216434  0.3021209609739643
  0.5584040639577439  0.9486040025745831  0.0923724499569652
  0.0455779591371160  0.6280714176210257  0.4289717538933804
  0.3436883224824656  0.6171949509707155  0.6630883931613984
  0.8719699639358438  0.7215117070231569  0.5755197220294705
  0.3417524899039389  0.4282267994263786  0.2554994021193510
  0.1382657909663670  0.0278158834623946  0.4336825043365606
  0.6400587068319592  0.7150230026144059  0.7934152522861068
  0.7784256074353201  0.6534731777030517  0.4818573518607430
 
  0.86123926E-02  0.14333225E-01  0.10266974E-01
  0.97370793E-02  0.19226646E-02  0.45865962E-02
  0.13463872E-01  0.19175065E-01 -0.64186530E-02
 -0.10143317E-02  0.50188396E-02 -0.31049158E-01
  0.52379493E-03  0.25437226E-01 -0.62539731E-02
 -0.18572814E-02 -0.37110710E-02 -0.10477020E-01
  0.32850340E-02 -0.16153073E-01 -0.49227648E-02
 -0.35387592E-02 -0.38570128E-02  0.14728749E-01
 -0.24152337E-02  0.29689424E-02 -0.12816902E-02
  0.51918445E-02 -0.37641073E-02 -0.97523181E-03
  0.37965244E-02 -0.20034593E-01  0.15925702E-01
  0.13861571E-01 -0.52860502E-03  0.88518064E-02
  0.18744906E-02  0.11190517E-01 -0.14617500E-02
  0.36675187E-02 -0.11804259E-02 -0.40878757E-02
 -0.20593279E-02 -0.11723933E-01  0.88114668E-02
  0.23636898E-01  0.66517601E-02  0.81352574E-02
  0.27248538E-01 -0.13648286E-01  0.76159763E-02
  0.64391678E-02 -0.97995210E-02 -0.14556269E-01
 -0.14412753E-01  0.12264621E-01 -0.39177301E-02
 -0.40543144E-02 -0.69569004E-02 -0.15425819E-02
  0.32462961E-02  0.44476360E-02 -0.10754186E-02
  0.12541014E-01 -0.30662757E-02  0.60735669E-03
 -0.80611706E-02  0.34036680E-02 -0.16360191E-01
  0.24779111E-01  0.22160767E-01 -0.10002276E-01
 -0.49498737E-02 -0.10563475E-01 -0.89058626E-03
 -0.72475344E-02  0.99594048E-02 -0.13199550E-01
  0.25126045E-01 -0.33958967E-02 -0.11461303E-01
  0.67037399E-02 -0.28715893E-02  0.53630242E-03
  0.85607424E-02  0.31544969E-02 -0.18667558E-01
 -0.33131953E-02  0.69661195E-02 -0.27887532E-02
  0.89231047E-02  0.15978920E-01 -0.99157566E-02
  0.83717481E-02 -0.49180001E-02  0.14060319E-01
 -0.18265219E-01 -0.14869699E-01 -0.46614157E-02
 -0.65577591E-02  0.51348794E-02  0.40619869E-02
 -0.23834126E-02  0.78314637E-02 -0.93847428E-03
  0.49944440E-02 -0.60266999E-03  0.73131586E-02
 -0.12525147E-02  0.94083503E-02  0.17772054E-01
 -0.13783216E-01  0.42265676E-02  0.52235982E-02
 -0.30931432E-02 -0.16802838E-01 -0.19147983E-01
  0.19713045E-02  0.12278793E-01  0.15990381E-01
  0.79837336E-02 -0.26817999E-02 -0.16837255E-01
 -0.47871453E-03 -0.11281794E-01  0.29207365E-01
  0.11406246E-01  0.10825824E-02 -0.19155970E-01
 -0.68562451E-02 -0.51162291E-02  0.14071325E-01
  0.12831415E-01  0.11998035E-02 -0.72986884E-02