generated by gro2pos
 1.0
      17.960000000000       0.000000000000       0.000000000000
       0.000000000000      17.960000000000       0.000000000000
       0.000000000000       0.000000000000      17.960000000000
 Si O
      150      300
C
      11.380000000000       7.820000000000      15.270000000000
       3.410000000000       3.210000000000      14.720000000000
       9.790000000000       7.600000000000       2.290000000000
       6.610000000000       6.950000000000      13.680000000000
      10.200000000000       4.090000000000       3.870000000000
      14.090000000000       9.190000000000      15.480000000000
       0.270000000000      14.670000000000      17.770000000000
       9.620000000000      10.490000000000      15.710000000000
       8.680000000000      16.250000000000       1.170000000000
      17.560000000000       9.970000000000       9.230000000000
       2.750000000000      14.710000000000      14.220000000000
      14.820000000000       0.820000000000      11.980000000000
      17.180000000000      13.040000000000       3.010000000000
       3.420000000000       9.890000000000      13.240000000000
      12.980000000000      13.320000000000       0.550000000000
       1.720000000000      13.690000000000      11.570000000000
      14.140000000000       7.860000000000      11.090000000000
       6.840000000000      11.630000000000       1.720000000000
       0.940000000000       6.400000000000      13.390000000000
       8.880000000000      15.300000000000       8.330000000000
       4.590000000000      10.120000000000      16.110000000000
       7.740000000000       2.380000000000       7.440000000000
       4.850000000000       5.510000000000      17.460000000000
       3.200000000000      13.890000000000       8.050000000000
       6.920000000000      11.640000000000       6.360000000000
       9.950000000000       0.280000000000       7.820000000000
       0.860000000000       7.330000000000      10.330000000000
       7.740000000000       0.490000000000       3.120000000000
       1.000000000000      15.390000000000       4.000000000000
       0.680000000000       8.530000000000       5.260000000000
      17.550000000000      17.220000000000      12.610000000000
       2.020000000000       0.000000000000      10.630000000000
       1.240000000000       3.730000000000      17.030000000000
       3.740000000000       0.260000000000       6.600000000000
       7.840000000000       7.470000000000       7.070000000000
      17.600000000000       3.650000000000      12.920000000000
      17.210000000000      12.780000000000      15.780000000000
      13.180000000000      14.720000000000      13.760000000000
      12.890000000000       1.840000000000      14.340000000000
       8.690000000000       6.520000000000      10.820000000000
       5.420000000000      15.130000000000      12.920000000000
       4.250000000000      16.470000000000       9.160000000000
       0.150000000000      11.610000000000       5.730000000000
       6.860000000000       8.960000000000      17.930000000000
       3.730000000000       7.810000000000      10.880000000000
       7.080000000000       2.140000000000      14.610000000000
       9.660000000000      11.800000000000       3.090000000000
       3.950000000000       5.240000000000       7.490000000000
      12.110000000000       4.850000000000       8.160000000000
       4.620000000000      13.180000000000      16.290000000000
      15.050000000000       9.550000000000       7.370000000000
       9.370000000000       4.930000000000       6.660000000000
       2.080000000000       9.330000000000      17.840000000000
       2.680000000000       8.580000000000       2.910000000000
      10.260000000000       1.000000000000       4.810000000000
       9.120000000000      13.050000000000      10.800000000000
      14.320000000000       4.850000000000       0.430000000000
      14.390000000000      12.170000000000      14.430000000000
       0.510000000000       6.790000000000      17.350000000000
       9.330000000000      17.570000000000      11.940000000000
      14.940000000000       5.320000000000      12.600000000000
       3.940000000000       4.740000000000      10.630000000000
      10.330000000000       5.570000000000      13.270000000000
       3.680000000000       2.880000000000       3.220000000000
       6.920000000000      16.370000000000      10.440000000000
      10.510000000000       5.930000000000      17.670000000000
      13.020000000000       5.260000000000       3.040000000000
      10.930000000000       8.340000000000       7.090000000000
       6.740000000000      11.660000000000       9.420000000000
      10.550000000000      10.370000000000      11.740000000000
      16.280000000000      13.370000000000       7.600000000000
      10.670000000000       1.880000000000      10.370000000000
      10.200000000000      10.130000000000       0.700000000000
       1.170000000000       2.270000000000       1.770000000000
      15.110000000000       3.790000000000       4.800000000000
       6.380000000000       4.110000000000      12.380000000000
       3.410000000000       8.290000000000       6.840000000000
      13.460000000000       1.810000000000       0.680000000000
       8.140000000000       3.650000000000      10.040000000000
       0.410000000000      10.630000000000      14.060000000000
       3.940000000000      11.430000000000       3.040000000000
       1.490000000000      17.330000000000      15.090000000000
      16.730000000000       2.450000000000      15.640000000000
       4.100000000000      11.870000000000      11.080000000000
       5.060000000000       2.810000000000       6.100000000000
      14.290000000000       4.420000000000      15.480000000000
      15.670000000000       0.070000000000      17.190000000000
       2.120000000000       2.680000000000      11.880000000000
      12.310000000000      17.110000000000      15.660000000000
      14.220000000000      17.360000000000       7.060000000000
       1.170000000000       4.170000000000       6.320000000000
      15.820000000000      14.720000000000      11.940000000000
      11.480000000000      15.970000000000       0.360000000000
       5.920000000000       9.030000000000       5.110000000000
       9.090000000000      13.400000000000      15.420000000000
       3.770000000000       6.250000000000      14.750000000000
       2.650000000000      10.770000000000       8.710000000000
      17.930000000000       0.150000000000       8.490000000000
       7.740000000000       6.560000000000      16.530000000000
      17.500000000000      11.150000000000       0.490000000000
      14.040000000000      13.170000000000       3.510000000000
      15.300000000000      15.310000000000       0.230000000000
      10.710000000000       2.840000000000      17.660000000000
      12.580000000000      15.280000000000       5.350000000000
      13.990000000000      16.350000000000      10.100000000000
       0.630000000000      17.730000000000       0.070000000000
       9.370000000000      16.460000000000      14.930000000000
      16.840000000000       1.520000000000       3.420000000000
       6.260000000000       2.850000000000      17.570000000000
       7.110000000000      12.730000000000      13.090000000000
      16.490000000000      15.910000000000       5.660000000000
       6.520000000000      17.130000000000      15.070000000000
       7.140000000000      14.080000000000      17.690000000000
      12.410000000000      17.820000000000       2.810000000000
      13.160000000000      10.170000000000       0.230000000000
       4.380000000000       0.850000000000       0.830000000000
      10.040000000000       2.770000000000      14.590000000000
      14.640000000000       6.720000000000       8.130000000000
       0.940000000000       1.050000000000       5.670000000000
      15.450000000000       9.280000000000       1.930000000000
       3.310000000000      16.200000000000       2.360000000000
      11.350000000000      15.220000000000      11.230000000000
      12.360000000000       4.210000000000      11.190000000000
      11.310000000000       7.960000000000      10.030000000000
       7.460000000000      14.640000000000       5.690000000000
       0.480000000000      15.010000000000       9.040000000000
      13.720000000000       2.500000000000       7.320000000000
       9.950000000000      11.000000000000       5.980000000000
      13.670000000000      11.910000000000       8.810000000000
       5.490000000000      16.770000000000       4.470000000000
       4.060000000000       0.610000000000      15.860000000000
      13.590000000000      10.870000000000      11.770000000000
       7.900000000000       9.800000000000      13.380000000000
      17.230000000000      11.880000000000      11.560000000000
       2.860000000000      13.180000000000       5.320000000000
       6.630000000000       8.510000000000       9.770000000000
       8.360000000000       3.110000000000       1.720000000000
      17.280000000000       5.030000000000       8.740000000000
       9.960000000000      14.820000000000       3.770000000000
      11.220000000000      13.390000000000       7.470000000000
       2.830000000000      13.380000000000       0.930000000000
       6.780000000000       7.470000000000       2.690000000000
       4.300000000000       5.910000000000       2.560000000000
      16.970000000000       8.090000000000      15.150000000000
      17.270000000000       5.890000000000       4.740000000000
      14.350000000000      10.230000000000       4.470000000000
      12.200000000000       7.870000000000       4.380000000000
      15.940000000000       2.400000000000       9.590000000000
      15.160000000000      16.840000000000       3.020000000000
      16.650000000000       6.400000000000       1.690000000000
       8.430000000000      11.030000000000       6.490000000000
       5.200000000000      17.440000000000      15.930000000000
      12.930000000000      16.000000000000      14.680000000000
       9.010000000000       5.770000000000      17.060000000000
      10.930000000000       7.890000000000       3.370000000000
      15.290000000000       1.970000000000      10.970000000000
       5.090000000000       6.970000000000      14.220000000000
       7.850000000000      13.040000000000      14.470000000000
       2.970000000000      12.170000000000       1.970000000000
       7.050000000000      10.370000000000       0.720000000000
      13.990000000000      10.430000000000       8.230000000000
       3.320000000000      10.750000000000      10.170000000000
       5.110000000000       4.000000000000      11.420000000000
       1.830000000000      16.390000000000       3.050000000000
       7.570000000000       6.580000000000      14.940000000000
      17.360000000000      10.890000000000      12.830000000000
      14.480000000000       0.810000000000      17.940000000000
       9.810000000000       5.010000000000       5.120000000000
       7.240000000000       3.540000000000       0.680000000000
      10.370000000000      11.320000000000       1.750000000000
       3.520000000000       8.670000000000      12.210000000000
       9.680000000000      16.690000000000       8.100000000000
       5.680000000000       9.240000000000      16.860000000000
       3.770000000000      12.320000000000       4.350000000000
       0.850000000000      16.130000000000       0.140000000000
       6.510000000000       7.970000000000       1.190000000000
       0.020000000000       0.890000000000       4.370000000000
       9.980000000000      14.140000000000       8.160000000000
       2.350000000000       3.390000000000      15.940000000000
      13.220000000000      13.250000000000       2.130000000000
       3.940000000000      17.380000000000       1.450000000000
       3.880000000000       6.230000000000      11.200000000000
      15.520000000000       9.770000000000       3.460000000000
       4.160000000000       1.780000000000       6.970000000000
      15.980000000000       5.850000000000       8.270000000000
      10.720000000000      17.170000000000      15.360000000000
       2.640000000000       1.300000000000      11.300000000000
       9.480000000000       8.970000000000       1.510000000000
      15.810000000000      12.710000000000      14.980000000000
       7.070000000000       8.150000000000       5.850000000000
       6.380000000000      15.580000000000       5.030000000000
      14.240000000000      14.150000000000      17.930000000000
      14.240000000000       3.220000000000       6.000000000000
       3.900000000000       6.160000000000      16.350000000000
       6.980000000000       2.560000000000      16.170000000000
      12.040000000000      14.740000000000      12.610000000000
      10.770000000000       0.940000000000       9.050000000000
      17.660000000000       7.120000000000      14.090000000000
      11.880000000000      16.780000000000       1.690000000000
       1.670000000000      12.200000000000       5.860000000000
      15.800000000000       5.330000000000       0.840000000000
       9.920000000000      10.880000000000       4.380000000000
      13.400000000000       5.750000000000       7.790000000000
      13.130000000000       9.170000000000       4.390000000000
       0.090000000000       4.420000000000       7.490000000000
      15.940000000000       0.290000000000       2.940000000000
       8.860000000000       3.440000000000       6.970000000000
       2.100000000000      14.370000000000       4.580000000000
       6.620000000000       0.620000000000      14.380000000000
      12.140000000000       4.890000000000       9.760000000000
      17.000000000000       0.010000000000       0.140000000000
       1.870000000000      10.230000000000      13.560000000000
      13.060000000000       6.620000000000       3.880000000000
       9.980000000000      12.030000000000      15.310000000000
       9.960000000000       4.340000000000      14.230000000000
      10.680000000000       5.230000000000       7.540000000000
       3.950000000000       4.680000000000      14.390000000000
      11.360000000000       2.100000000000      13.940000000000
      14.900000000000       6.820000000000      12.040000000000
       3.270000000000      10.000000000000      17.020000000000
       9.950000000000       1.010000000000      11.510000000000
      14.600000000000      14.790000000000      12.980000000000
       6.580000000000       5.680000000000      12.680000000000
      17.210000000000       2.690000000000      14.130000000000
      11.600000000000       4.550000000000       3.280000000000
       3.460000000000       9.930000000000       3.340000000000
       9.630000000000      14.860000000000      14.980000000000
      11.050000000000       4.420000000000      17.750000000000
      13.910000000000       1.440000000000      13.150000000000
       8.640000000000       2.140000000000      14.210000000000
      12.270000000000      12.560000000000       8.360000000000
      15.710000000000      17.060000000000       6.480000000000
       4.870000000000      17.640000000000       5.640000000000
       9.620000000000       3.050000000000       9.980000000000
       0.950000000000       6.920000000000      11.880000000000
       4.400000000000       2.060000000000      15.240000000000
      13.660000000000      17.130000000000       3.490000000000
       8.110000000000      13.380000000000      12.010000000000
      14.980000000000      10.230000000000       5.930000000000
       6.820000000000      12.950000000000       0.820000000000
       2.330000000000       6.670000000000      14.170000000000
      17.000000000000      11.950000000000      17.150000000000
      17.900000000000       8.610000000000      10.040000000000
      16.980000000000      15.720000000000      12.440000000000
      16.160000000000      14.550000000000       6.480000000000
      11.760000000000      14.370000000000       0.350000000000
       7.290000000000       2.980000000000       8.870000000000
      10.850000000000       9.890000000000       6.680000000000
       8.090000000000      12.490000000000       9.680000000000
       6.400000000000      17.740000000000       3.570000000000
       8.180000000000       5.250000000000       9.980000000000
      16.760000000000       1.080000000000       9.100000000000
       8.280000000000      17.640000000000       1.830000000000
       3.590000000000       0.870000000000      17.370000000000
      17.540000000000      12.110000000000       1.770000000000
      15.170000000000      15.380000000000      10.600000000000
      14.520000000000       5.280000000000      14.160000000000
      15.590000000000      13.260000000000       3.100000000000
       1.320000000000       8.550000000000       3.770000000000
      16.070000000000       1.020000000000      15.960000000000
      13.980000000000       9.820000000000       1.550000000000
      15.880000000000      16.030000000000       4.180000000000
      16.460000000000       9.630000000000       8.120000000000
       3.800000000000      13.120000000000      17.660000000000
      16.450000000000      10.020000000000       0.950000000000
       0.350000000000      11.990000000000      14.920000000000
       9.590000000000       2.550000000000       0.820000000000
      15.000000000000      16.100000000000       1.610000000000
       3.250000000000      14.780000000000       1.620000000000
       0.070000000000      14.410000000000       3.110000000000
      15.630000000000       3.600000000000      15.830000000000
      14.250000000000       9.410000000000      11.490000000000
      17.010000000000       5.930000000000       3.160000000000
      10.170000000000      13.270000000000       3.450000000000
      17.920000000000       2.840000000000      16.630000000000
       3.890000000000       6.850000000000       7.400000000000
       0.100000000000      15.900000000000       5.250000000000
      17.590000000000      12.240000000000       4.350000000000
       7.920000000000      17.400000000000      11.160000000000
      11.670000000000       9.640000000000       0.320000000000
      10.570000000000      12.390000000000       6.410000000000
       0.240000000000      10.020000000000       5.630000000000
       9.080000000000       4.120000000000       2.720000000000
      13.850000000000      11.710000000000       4.150000000000
       7.560000000000       3.460000000000      11.510000000000
       9.380000000000       9.750000000000      12.680000000000
      14.180000000000      16.840000000000       8.590000000000
      14.160000000000       4.310000000000       3.620000000000
      15.370000000000      16.450000000000      17.030000000000
       2.370000000000       0.330000000000       5.760000000000
       4.150000000000      14.890000000000       8.870000000000
      14.350000000000      11.730000000000      12.880000000000
      12.400000000000       3.320000000000       7.710000000000
       2.520000000000       8.840000000000       1.340000000000
      16.800000000000       3.750000000000       9.590000000000
      17.160000000000      12.220000000000       6.880000000000
       1.280000000000       0.790000000000       1.100000000000
      12.530000000000       7.630000000000      11.010000000000
       0.150000000000       0.530000000000       6.970000000000
      17.190000000000       7.310000000000      16.520000000000
      12.870000000000       8.300000000000      14.970000000000
       0.890000000000      10.390000000000       0.100000000000
      13.610000000000      11.710000000000      10.400000000000
      16.760000000000      14.700000000000       0.450000000000
      13.270000000000      16.490000000000       6.120000000000
       7.980000000000      15.430000000000       9.660000000000
      14.130000000000       3.270000000000       0.660000000000
      13.550000000000      14.300000000000       4.520000000000
       7.470000000000      15.430000000000       0.520000000000
       2.550000000000       4.710000000000       6.900000000000
      13.740000000000       0.920000000000       7.050000000000
      17.520000000000       7.380000000000       5.300000000000
       6.000000000000      15.630000000000      11.520000000000
       5.420000000000      11.480000000000       2.430000000000
       6.950000000000      10.090000000000       9.730000000000
      17.800000000000       9.470000000000      14.990000000000
      13.020000000000      11.790000000000       0.030000000000
       9.940000000000      11.750000000000      11.260000000000
       5.790000000000       1.410000000000       0.210000000000
      12.060000000000      10.620000000000      12.270000000000
       8.820000000000      14.860000000000       4.890000000000
      15.450000000000       8.530000000000      15.010000000000
       0.040000000000       6.740000000000       0.920000000000
       9.520000000000      10.550000000000      17.300000000000
      10.510000000000       0.610000000000       6.350000000000
       7.790000000000      15.080000000000       7.180000000000
      17.780000000000      14.200000000000      16.270000000000
       8.270000000000      10.140000000000      14.910000000000
      13.290000000000       3.230000000000      15.050000000000
       9.170000000000       6.100000000000      12.300000000000
       1.550000000000       7.990000000000      17.130000000000
      13.930000000000       9.350000000000      17.070000000000
       5.910000000000      14.100000000000      16.650000000000
      17.610000000000       2.320000000000       2.260000000000
       2.000000000000      15.810000000000      15.110000000000
      15.730000000000       7.720000000000       1.830000000000
      10.580000000000       9.230000000000      15.390000000000
       3.330000000000       9.630000000000       7.770000000000
       8.090000000000      11.760000000000       2.720000000000
      10.290000000000       2.580000000000       4.460000000000
      14.770000000000       2.680000000000       8.520000000000
      13.030000000000       1.160000000000       2.070000000000
      10.480000000000      16.550000000000      11.430000000000
      13.970000000000       5.160000000000      16.850000000000
       6.960000000000       7.890000000000       8.330000000000
       8.820000000000       0.440000000000       4.330000000000
       0.920000000000       5.300000000000      16.930000000000
       1.550000000000       3.310000000000       0.600000000000
      14.700000000000       8.000000000000       7.170000000000
       7.640000000000       7.700000000000      10.710000000000
       5.110000000000       8.260000000000      10.200000000000
       4.190000000000       1.950000000000       2.000000000000
       3.430000000000       7.160000000000       3.070000000000
       1.770000000000      14.100000000000      13.110000000000
       5.820000000000       6.220000000000       2.990000000000
      16.030000000000       5.020000000000       5.270000000000
       4.150000000000       9.670000000000      14.640000000000
       0.660000000000       4.820000000000      13.410000000000
       7.060000000000       8.450000000000      13.290000000000
       5.520000000000      12.100000000000      10.370000000000
       5.770000000000      16.910000000000       9.450000000000
      12.590000000000      15.580000000000      10.270000000000
      13.300000000000      13.340000000000      14.580000000000
       5.760000000000      13.570000000000      13.040000000000
       6.580000000000       2.350000000000       6.360000000000
       8.120000000000       5.900000000000       6.900000000000
       3.880000000000      15.400000000000      13.260000000000
       6.360000000000      11.770000000000       7.860000000000
       5.040000000000       3.900000000000      17.410000000000
       1.740000000000      14.600000000000       8.110000000000
       0.750000000000      17.500000000000      11.520000000000
       4.330000000000      16.160000000000       3.580000000000
      14.050000000000      17.620000000000      11.120000000000
       3.620000000000      13.760000000000      15.170000000000
       8.470000000000      13.620000000000      16.890000000000
       3.200000000000      13.190000000000      11.170000000000
      11.400000000000       4.880000000000      12.280000000000
       1.920000000000       8.140000000000       6.230000000000
      16.320000000000       4.520000000000      12.490000000000
      11.210000000000       6.940000000000      16.620000000000
      11.310000000000       0.350000000000       3.810000000000
       4.450000000000       2.620000000000       4.610000000000
       2.990000000000      12.330000000000       8.410000000000
       1.370000000000      13.630000000000       0.300000000000
      11.290000000000      15.470000000000       4.380000000000
       3.670000000000      13.820000000000       6.530000000000
      13.340000000000       5.540000000000       1.500000000000
       7.690000000000       2.010000000000       2.660000000000
       9.110000000000      17.030000000000      13.440000000000
      12.040000000000       2.000000000000      17.920000000000
      11.970000000000       2.660000000000      10.900000000000
       2.870000000000       0.140000000000      14.900000000000
       4.950000000000       4.340000000000       6.600000000000
       0.290000000000       6.070000000000       9.510000000000
       0.510000000000       2.760000000000      11.920000000000
       7.910000000000       8.070000000000      17.090000000000
      10.330000000000       6.600000000000       1.160000000000
      12.030000000000      14.440000000000       6.610000000000
       1.330000000000       0.520000000000       9.260000000000
      13.830000000000       4.530000000000      11.740000000000
      12.370000000000      16.600000000000      17.160000000000
      10.220000000000       2.590000000000      16.170000000000
       6.220000000000      15.950000000000      14.040000000000
       0.800000000000      12.380000000000      11.420000000000
       3.710000000000      17.250000000000       7.860000000000
       6.340000000000       6.000000000000      17.080000000000
       1.090000000000      14.710000000000      10.500000000000
       9.350000000000       7.990000000000       7.220000000000
       3.180000000000      16.900000000000      10.300000000000
      16.910000000000      11.040000000000      10.240000000000
       6.130000000000      10.560000000000       5.510000000000
      11.670000000000       8.060000000000       8.480000000000
       0.650000000000       5.060000000000       5.100000000000
      16.020000000000       2.580000000000       4.270000000000
      10.780000000000       9.400000000000      10.500000000000
       4.130000000000       4.860000000000       9.050000000000
       8.340000000000       7.200000000000       2.860000000000
       0.360000000000      17.450000000000      13.990000000000
      10.870000000000       6.830000000000      14.110000000000
      10.060000000000       7.010000000000      10.170000000000
       0.970000000000      17.920000000000      16.480000000000
       2.620000000000       3.920000000000      11.000000000000
       5.050000000000      11.660000000000      15.990000000000
      16.200000000000       0.140000000000      12.470000000000
       8.490000000000       1.000000000000       7.760000000000
      14.050000000000      10.750000000000      15.080000000000
       7.970000000000      16.800000000000      15.680000000000
       2.370000000000       7.790000000000       9.990000000000
       9.920000000000      16.280000000000       0.160000000000
      12.930000000000       0.570000000000      15.310000000000
       2.120000000000       2.510000000000       3.050000000000
       6.240000000000       8.680000000000       3.600000000000
      11.610000000000       7.640000000000       5.840000000000
       1.050000000000      10.510000000000       8.740000000000
      17.900000000000      16.500000000000       8.750000000000
       2.670000000000       2.770000000000      13.380000000000
       3.840000000000       4.450000000000       3.000000000000
       4.080000000000      11.160000000000      12.510000000000
       6.380000000000       3.270000000000      13.720000000000
      14.540000000000       7.450000000000       9.590000000000
       4.320000000000       5.890000000000       0.950000000000
       7.080000000000      13.080000000000       5.700000000000
       9.330000000000      15.450000000000       2.440000000000
      17.240000000000      14.000000000000       8.720000000000
       7.150000000000      11.130000000000      12.850000000000
      16.420000000000      13.250000000000      11.740000000000
       4.510000000000       8.590000000000       5.700000000000
       1.190000000000       2.630000000000       5.930000000000
      10.290000000000      14.140000000000      10.760000000000
      14.890000000000      12.820000000000       8.210000000000
