Automatic mesh
0               
G    
1 1 1
